NAME : local_2
TYPE : ATSP
DIMENSION : 19
EDGE_WEIGHT_TYPE : EXPLICIT
EDGE_WEIGHT_FORMAT : FULL_MATRIX
EDGE_WEIGHT_SECTION
0 671 145 377 10000000 720 10000000 10000000 546 10000000 416 10000000 890 10000000 10000000 114 719 10000000 10000000 
0 0 536 384 10000000 10000000 10000000 10000000 10000000 10000000 10000000 10000000 312 10000000 10000000 780 10000000 10000000 10000000 
0 536 0 237 10000000 838 10000000 10000000 602 10000000 541 10000000 775 10000000 10000000 247 826 10000000 10000000 
0 384 237 0 10000000 10000000 10000000 10000000 689 10000000 748 10000000 676 10000000 10000000 472 985 10000000 985 
0 10000000 10000000 10000000 0 10000000 878 484 10000000 747 10000000 810 10000000 257 826 10000000 10000000 578 500 
0 10000000 838 10000000 10000000 0 10000000 10000000 692 10000000 314 10000000 10000000 10000000 10000000 606 396 10000000 10000000 
0 10000000 10000000 10000000 878 10000000 0 419 10000000 10000000 10000000 10000000 10000000 10000000 10000000 10000000 10000000 10000000 978 
0 10000000 10000000 10000000 484 10000000 419 0 10000000 10000000 10000000 10000000 10000000 704 10000000 10000000 10000000 10000000 714 
0 10000000 602 689 10000000 692 10000000 10000000 0 10000000 474 10000000 10000000 10000000 10000000 494 400 10000000 1266 
0 10000000 10000000 10000000 747 10000000 10000000 10000000 10000000 0 10000000 294 10000000 550 211 10000000 10000000 258 843 
0 10000000 541 748 10000000 314 10000000 10000000 474 10000000 0 10000000 10000000 10000000 10000000 301 379 10000000 10000000 
0 10000000 10000000 10000000 810 10000000 10000000 10000000 10000000 294 10000000 0 10000000 562 173 10000000 10000000 473 719 
0 312 775 676 10000000 10000000 10000000 10000000 10000000 10000000 10000000 10000000 0 10000000 10000000 996 10000000 10000000 10000000 
0 10000000 10000000 10000000 257 10000000 10000000 704 10000000 550 10000000 562 10000000 0 602 10000000 10000000 433 392 
0 10000000 10000000 10000000 826 10000000 10000000 10000000 10000000 211 10000000 173 10000000 602 0 10000000 10000000 446 805 
0 780 247 472 10000000 606 10000000 10000000 494 10000000 301 10000000 996 10000000 10000000 0 617 10000000 10000000 
0 10000000 826 985 10000000 396 10000000 10000000 400 10000000 379 10000000 10000000 10000000 10000000 617 0 10000000 10000000 
0 10000000 10000000 10000000 578 10000000 10000000 10000000 10000000 258 10000000 473 10000000 433 446 10000000 10000000 0 798 
0 10000000 10000000 10000000 10000000 10000000 10000000 10000000 10000000 10000000 10000000 10000000 10000000 10000000 10000000 10000000 10000000 10000000 0 
EOF